\Problem name: Modelo Montagem de Elenco

Minimize
OBJROW: -0.20000 y(0,0) -9.45000 y(0,1) -9.45000 y(0,2) -8.55000 y(0,3) -6.45000 y(0,4) -6 y(0,5) -5.80000 y(0,6) -5.15000 y(0,7) -5.75000 y(0,8) -5.60000 y(0,9)
 -4.50000 y(0,10) -5.70000 y(0,11) -0.70000 y(0,13) -8.20000 y(0,14) -1.50000 y(0,15) + 0.05000 y(0,16) -1.05000 y(0,17) -5.30000 y(0,18) -10.50000 y(0,19) -7.20000 y(0,20)
 -0.80000 y(0,21) -4.10000 y(0,22) -8.75000 y(0,23) -3.65000 y(0,24) + 0.25000 y(0,25) -4.30000 y(0,26) -7.70000 y(0,27) -4.60000 y(0,28) -0.80000 y(0,29) -3.20000 y(0,30)
 -3.50000 y(0,32) -2.75000 y(0,33) -4.90000 y(0,34) -4.50000 y(0,35) -8.55000 y(0,36) -2.10000 y(0,37) -1.90000 y(0,38) -2.55000 y(0,39) + 0.30000 y(0,40) -6.55000 y(0,41)
 -4.10000 y(0,42) -3.70000 y(0,43) -4.35000 y(0,44) -4.64000 y(0,45) -4.12000 y(0,46) -3.03000 y(0,47) -4.49000 y(0,48) -4.71000 y(0,49) -3.50000 y(0,50) -3.91000 y(0,51)
 -3.74000 y(0,52) -4.95000 y(0,53) -6 y(0,54) -2.05000 y(0,55) -3.45000 y(0,56) -1.50000 y(0,57) -5.50000 y(0,58) -5.10000 y(0,59) -4.30000 y(0,60) -4.40000 y(0,61)
 -3.20000 y(0,62) -2.45000 y(0,63) -4.60000 y(0,64) -0.20000 y(1,0) -9.45000 y(1,1) -9.45000 y(1,2) -8.55000 y(1,3) -6.45000 y(1,4) -6 y(1,5) -5.80000 y(1,6)
 -5.15000 y(1,7) -5.75000 y(1,8) -5.60000 y(1,9) -4.50000 y(1,10) -5.70000 y(1,11) -0.70000 y(1,13) -8.20000 y(1,14) -1.50000 y(1,15) + 0.05000 y(1,16) -1.05000 y(1,17)
 -5.30000 y(1,18) -10.50000 y(1,19) -7.20000 y(1,20) -0.80000 y(1,21) -4.10000 y(1,22) -8.75000 y(1,23) -3.65000 y(1,24) + 0.25000 y(1,25) -4.30000 y(1,26) -7.70000 y(1,27)
 -4.60000 y(1,28) -0.80000 y(1,29) -3.20000 y(1,30) -3.50000 y(1,32) -2.75000 y(1,33) -4.90000 y(1,34) -4.50000 y(1,35) -8.55000 y(1,36) -2.10000 y(1,37) -1.90000 y(1,38)
 -2.55000 y(1,39) + 0.30000 y(1,40) -6.55000 y(1,41) -4.10000 y(1,42) -3.70000 y(1,43) -4.35000 y(1,44) -4.64000 y(1,45) -4.12000 y(1,46) -3.03000 y(1,47) -4.49000 y(1,48)
 -4.71000 y(1,49) -3.50000 y(1,50) -3.91000 y(1,51) -3.74000 y(1,52) -4.95000 y(1,53) -6 y(1,54) -2.05000 y(1,55) -3.45000 y(1,56) -1.50000 y(1,57) -5.50000 y(1,58)
 -5.10000 y(1,59) -4.30000 y(1,60) -4.40000 y(1,61) -3.20000 y(1,62) -2.45000 y(1,63) -4.60000 y(1,64) -0.20000 y(2,0) -9.45000 y(2,1) -9.45000 y(2,2) -8.55000 y(2,3)
 -6.45000 y(2,4) -6 y(2,5) -5.80000 y(2,6) -5.15000 y(2,7) -5.75000 y(2,8) -5.60000 y(2,9) -4.50000 y(2,10) -5.70000 y(2,11) -0.70000 y(2,13) -8.20000 y(2,14)
 -1.50000 y(2,15) + 0.05000 y(2,16) -1.05000 y(2,17) -5.30000 y(2,18) -10.50000 y(2,19) -7.20000 y(2,20) -0.80000 y(2,21) -4.10000 y(2,22) -8.75000 y(2,23) -3.65000 y(2,24)
 + 0.25000 y(2,25) -4.30000 y(2,26) -7.70000 y(2,27) -4.60000 y(2,28) -0.80000 y(2,29) -3.20000 y(2,30) -3.50000 y(2,32) -2.75000 y(2,33) -4.90000 y(2,34) -4.50000 y(2,35)
 -8.55000 y(2,36) -2.10000 y(2,37) -1.90000 y(2,38) -2.55000 y(2,39) + 0.30000 y(2,40) -6.55000 y(2,41) -4.10000 y(2,42) -3.70000 y(2,43) -4.35000 y(2,44) -4.64000 y(2,45)
 -4.12000 y(2,46) -3.03000 y(2,47) -4.49000 y(2,48) -4.71000 y(2,49) -3.50000 y(2,50) -3.91000 y(2,51) -3.74000 y(2,52) -4.95000 y(2,53) -6 y(2,54) -2.05000 y(2,55)
 -3.45000 y(2,56) -1.50000 y(2,57) -5.50000 y(2,58) -5.10000 y(2,59) -4.30000 y(2,60) -4.40000 y(2,61) -3.20000 y(2,62) -2.45000 y(2,63) -4.60000 y(2,64) -0.20000 y(3,0)
 -9.45000 y(3,1) -9.45000 y(3,2) -8.55000 y(3,3) -6.45000 y(3,4) -6 y(3,5) -5.80000 y(3,6) -5.15000 y(3,7) -5.75000 y(3,8) -5.60000 y(3,9) -4.50000 y(3,10)
 -5.70000 y(3,11) -0.70000 y(3,13) -8.20000 y(3,14) -1.50000 y(3,15) + 0.05000 y(3,16) -1.05000 y(3,17) -5.30000 y(3,18) -10.50000 y(3,19) -7.20000 y(3,20) -0.80000 y(3,21)
 -4.10000 y(3,22) -8.75000 y(3,23) -3.65000 y(3,24) + 0.25000 y(3,25) -4.30000 y(3,26) -7.70000 y(3,27) -4.60000 y(3,28) -0.80000 y(3,29) -3.20000 y(3,30) -3.50000 y(3,32)
 -2.75000 y(3,33) -4.90000 y(3,34) -4.50000 y(3,35) -8.55000 y(3,36) -2.10000 y(3,37) -1.90000 y(3,38) -2.55000 y(3,39) + 0.30000 y(3,40) -6.55000 y(3,41) -4.10000 y(3,42)
 -3.70000 y(3,43) -4.35000 y(3,44) -4.64000 y(3,45) -4.12000 y(3,46) -3.03000 y(3,47) -4.49000 y(3,48) -4.71000 y(3,49) -3.50000 y(3,50) -3.91000 y(3,51) -3.74000 y(3,52)
 -4.95000 y(3,53) -6 y(3,54) -2.05000 y(3,55) -3.45000 y(3,56) -1.50000 y(3,57) -5.50000 y(3,58) -5.10000 y(3,59) -4.30000 y(3,60) -4.40000 y(3,61) -3.20000 y(3,62)
 -2.45000 y(3,63) -4.60000 y(3,64) -0.20000 y(4,0) -9.45000 y(4,1) -9.45000 y(4,2) -8.55000 y(4,3) -6.45000 y(4,4) -6 y(4,5) -5.80000 y(4,6) -5.15000 y(4,7)
 -5.75000 y(4,8) -5.60000 y(4,9) -4.50000 y(4,10) -5.70000 y(4,11) -0.70000 y(4,13) -8.20000 y(4,14) -1.50000 y(4,15) + 0.05000 y(4,16) -1.05000 y(4,17) -5.30000 y(4,18)
 -10.50000 y(4,19) -7.20000 y(4,20) -0.80000 y(4,21) -4.10000 y(4,22) -8.75000 y(4,23) -3.65000 y(4,24) + 0.25000 y(4,25) -4.30000 y(4,26) -7.70000 y(4,27) -4.60000 y(4,28)
 -0.80000 y(4,29) -3.20000 y(4,30) -3.50000 y(4,32) -2.75000 y(4,33) -4.90000 y(4,34) -4.50000 y(4,35) -8.55000 y(4,36) -2.10000 y(4,37) -1.90000 y(4,38) -2.55000 y(4,39)
 + 0.30000 y(4,40) -6.55000 y(4,41) -4.10000 y(4,42) -3.70000 y(4,43) -4.35000 y(4,44) -4.64000 y(4,45) -4.12000 y(4,46) -3.03000 y(4,47) -4.49000 y(4,48) -4.71000 y(4,49)
 -3.50000 y(4,50) -3.91000 y(4,51) -3.74000 y(4,52) -4.95000 y(4,53) -6 y(4,54) -2.05000 y(4,55) -3.45000 y(4,56) -1.50000 y(4,57) -5.50000 y(4,58) -5.10000 y(4,59)
 -4.30000 y(4,60) -4.40000 y(4,61) -3.20000 y(4,62) -2.45000 y(4,63) -4.60000 y(4,64) -0.20000 y(5,0) -9.45000 y(5,1) -9.45000 y(5,2) -8.55000 y(5,3) -6.45000 y(5,4)
 -6 y(5,5) -5.80000 y(5,6) -5.15000 y(5,7) -5.75000 y(5,8) -5.60000 y(5,9) -4.50000 y(5,10) -5.70000 y(5,11) -0.70000 y(5,13) -8.20000 y(5,14) -1.50000 y(5,15)
 + 0.05000 y(5,16) -1.05000 y(5,17) -5.30000 y(5,18) -10.50000 y(5,19) -7.20000 y(5,20) -0.80000 y(5,21) -4.10000 y(5,22) -8.75000 y(5,23) -3.65000 y(5,24) + 0.25000 y(5,25)
 -4.30000 y(5,26) -7.70000 y(5,27) -4.60000 y(5,28) -0.80000 y(5,29) -3.20000 y(5,30) -3.50000 y(5,32) -2.75000 y(5,33) -4.90000 y(5,34) -4.50000 y(5,35) -8.55000 y(5,36)
 -2.10000 y(5,37) -1.90000 y(5,38) -2.55000 y(5,39) + 0.30000 y(5,40) -6.55000 y(5,41) -4.10000 y(5,42) -3.70000 y(5,43) -4.35000 y(5,44) -4.64000 y(5,45) -4.12000 y(5,46)
 -3.03000 y(5,47) -4.49000 y(5,48) -4.71000 y(5,49) -3.50000 y(5,50) -3.91000 y(5,51) -3.74000 y(5,52) -4.95000 y(5,53) -6 y(5,54) -2.05000 y(5,55) -3.45000 y(5,56)
 -1.50000 y(5,57) -5.50000 y(5,58) -5.10000 y(5,59) -4.30000 y(5,60) -4.40000 y(5,61) -3.20000 y(5,62) -2.45000 y(5,63) -4.60000 y(5,64)
Subject To
restricao3.6_0:  y(0,0) + y(1,0) + y(2,0) + y(3,0) + y(4,0) + y(5,0) <= 1
restricao3.6_1:  y(0,1) + y(1,1) + y(2,1) + y(3,1) + y(4,1) + y(5,1) <= 1
restricao3.6_2:  y(0,2) + y(1,2) + y(2,2) + y(3,2) + y(4,2) + y(5,2) <= 1
restricao3.6_3:  y(0,3) + y(1,3) + y(2,3) + y(3,3) + y(4,3) + y(5,3) <= 1
restricao3.6_4:  y(0,4) + y(1,4) + y(2,4) + y(3,4) + y(4,4) + y(5,4) <= 1
restricao3.6_5:  y(0,5) + y(1,5) + y(2,5) + y(3,5) + y(4,5) + y(5,5) <= 1
restricao3.6_6:  y(0,6) + y(1,6) + y(2,6) + y(3,6) + y(4,6) + y(5,6) <= 1
restricao3.6_7:  y(0,7) + y(1,7) + y(2,7) + y(3,7) + y(4,7) + y(5,7) <= 1
restricao3.6_8:  y(0,8) + y(1,8) + y(2,8) + y(3,8) + y(4,8) + y(5,8) <= 1
restricao3.6_9:  y(0,9) + y(1,9) + y(2,9) + y(3,9) + y(4,9) + y(5,9) <= 1
restricao3.6_10:  y(0,10) + y(1,10) + y(2,10) + y(3,10) + y(4,10) + y(5,10) <= 1
restricao3.6_11:  y(0,11) + y(1,11) + y(2,11) + y(3,11) + y(4,11) + y(5,11) <= 1
restricao3.6_12:  y(0,12) + y(1,12) + y(2,12) + y(3,12) + y(4,12) + y(5,12) <= 1
restricao3.6_13:  y(0,13) + y(1,13) + y(2,13) + y(3,13) + y(4,13) + y(5,13) <= 1
restricao3.6_14:  y(0,14) + y(1,14) + y(2,14) + y(3,14) + y(4,14) + y(5,14) <= 1
restricao3.6_15:  y(0,15) + y(1,15) + y(2,15) + y(3,15) + y(4,15) + y(5,15) <= 1
restricao3.6_16:  y(0,16) + y(1,16) + y(2,16) + y(3,16) + y(4,16) + y(5,16) <= 1
restricao3.6_17:  y(0,17) + y(1,17) + y(2,17) + y(3,17) + y(4,17) + y(5,17) <= 1
restricao3.6_18:  y(0,18) + y(1,18) + y(2,18) + y(3,18) + y(4,18) + y(5,18) <= 1
restricao3.6_19:  y(0,19) + y(1,19) + y(2,19) + y(3,19) + y(4,19) + y(5,19) <= 1
restricao3.6_20:  y(0,20) + y(1,20) + y(2,20) + y(3,20) + y(4,20) + y(5,20) <= 1
restricao3.6_21:  y(0,21) + y(1,21) + y(2,21) + y(3,21) + y(4,21) + y(5,21) <= 1
restricao3.6_22:  y(0,22) + y(1,22) + y(2,22) + y(3,22) + y(4,22) + y(5,22) <= 1
restricao3.6_23:  y(0,23) + y(1,23) + y(2,23) + y(3,23) + y(4,23) + y(5,23) <= 1
restricao3.6_24:  y(0,24) + y(1,24) + y(2,24) + y(3,24) + y(4,24) + y(5,24) <= 1
restricao3.6_25:  y(0,25) + y(1,25) + y(2,25) + y(3,25) + y(4,25) + y(5,25) <= 1
restricao3.6_26:  y(0,26) + y(1,26) + y(2,26) + y(3,26) + y(4,26) + y(5,26) <= 1
restricao3.6_27:  y(0,27) + y(1,27) + y(2,27) + y(3,27) + y(4,27) + y(5,27) <= 1
restricao3.6_28:  y(0,28) + y(1,28) + y(2,28) + y(3,28) + y(4,28) + y(5,28) <= 1
restricao3.6_29:  y(0,29) + y(1,29) + y(2,29) + y(3,29) + y(4,29) + y(5,29) <= 1
restricao3.6_30:  y(0,30) + y(1,30) + y(2,30) + y(3,30) + y(4,30) + y(5,30) <= 1
restricao3.6_31:  y(0,31) + y(1,31) + y(2,31) + y(3,31) + y(4,31) + y(5,31) <= 1
restricao3.6_32:  y(0,32) + y(1,32) + y(2,32) + y(3,32) + y(4,32) + y(5,32) <= 1
restricao3.6_33:  y(0,33) + y(1,33) + y(2,33) + y(3,33) + y(4,33) + y(5,33) <= 1
restricao3.6_34:  y(0,34) + y(1,34) + y(2,34) + y(3,34) + y(4,34) + y(5,34) <= 1
restricao3.6_35:  y(0,35) + y(1,35) + y(2,35) + y(3,35) + y(4,35) + y(5,35) <= 1
restricao3.6_36:  y(0,36) + y(1,36) + y(2,36) + y(3,36) + y(4,36) + y(5,36) <= 1
restricao3.6_37:  y(0,37) + y(1,37) + y(2,37) + y(3,37) + y(4,37) + y(5,37) <= 1
restricao3.6_38:  y(0,38) + y(1,38) + y(2,38) + y(3,38) + y(4,38) + y(5,38) <= 1
restricao3.6_39:  y(0,39) + y(1,39) + y(2,39) + y(3,39) + y(4,39) + y(5,39) <= 1
restricao3.6_40:  y(0,40) + y(1,40) + y(2,40) + y(3,40) + y(4,40) + y(5,40) <= 1
restricao3.6_41:  y(0,41) + y(1,41) + y(2,41) + y(3,41) + y(4,41) + y(5,41) <= 1
restricao3.6_42:  y(0,42) + y(1,42) + y(2,42) + y(3,42) + y(4,42) + y(5,42) <= 1
restricao3.6_43:  y(0,43) + y(1,43) + y(2,43) + y(3,43) + y(4,43) + y(5,43) <= 1
restricao3.6_44:  y(0,44) + y(1,44) + y(2,44) + y(3,44) + y(4,44) + y(5,44) <= 1
restricao3.6_45:  y(0,45) + y(1,45) + y(2,45) + y(3,45) + y(4,45) + y(5,45) <= 1
restricao3.6_46:  y(0,46) + y(1,46) + y(2,46) + y(3,46) + y(4,46) + y(5,46) <= 1
restricao3.6_47:  y(0,47) + y(1,47) + y(2,47) + y(3,47) + y(4,47) + y(5,47) <= 1
restricao3.6_48:  y(0,48) + y(1,48) + y(2,48) + y(3,48) + y(4,48) + y(5,48) <= 1
restricao3.6_49:  y(0,49) + y(1,49) + y(2,49) + y(3,49) + y(4,49) + y(5,49) <= 1
restricao3.6_50:  y(0,50) + y(1,50) + y(2,50) + y(3,50) + y(4,50) + y(5,50) <= 1
restricao3.6_51:  y(0,51) + y(1,51) + y(2,51) + y(3,51) + y(4,51) + y(5,51) <= 1
restricao3.6_52:  y(0,52) + y(1,52) + y(2,52) + y(3,52) + y(4,52) + y(5,52) <= 1
restricao3.6_53:  y(0,53) + y(1,53) + y(2,53) + y(3,53) + y(4,53) + y(5,53) <= 1
restricao3.6_54:  y(0,54) + y(1,54) + y(2,54) + y(3,54) + y(4,54) + y(5,54) <= 1
restricao3.6_55:  y(0,55) + y(1,55) + y(2,55) + y(3,55) + y(4,55) + y(5,55) <= 1
restricao3.6_56:  y(0,56) + y(1,56) + y(2,56) + y(3,56) + y(4,56) + y(5,56) <= 1
restricao3.6_57:  y(0,57) + y(1,57) + y(2,57) + y(3,57) + y(4,57) + y(5,57) <= 1
restricao3.6_58:  y(0,58) + y(1,58) + y(2,58) + y(3,58) + y(4,58) + y(5,58) <= 1
restricao3.6_59:  y(0,59) + y(1,59) + y(2,59) + y(3,59) + y(4,59) + y(5,59) <= 1
restricao3.6_60:  y(0,60) + y(1,60) + y(2,60) + y(3,60) + y(4,60) + y(5,60) <= 1
restricao3.6_61:  y(0,61) + y(1,61) + y(2,61) + y(3,61) + y(4,61) + y(5,61) <= 1
restricao3.6_62:  y(0,62) + y(1,62) + y(2,62) + y(3,62) + y(4,62) + y(5,62) <= 1
restricao3.6_63:  y(0,63) + y(1,63) + y(2,63) + y(3,63) + y(4,63) + y(5,63) <= 1
restricao3.6_64:  y(0,64) + y(1,64) + y(2,64) + y(3,64) + y(4,64) + y(5,64) <= 1
restricao_12jogadores:  y(0,0) + y(0,1) + y(0,2) + y(0,3) + y(0,4) + y(0,5) + y(0,6) + y(0,7) + y(0,8) + y(0,9)
 + y(0,10) + y(0,11) + y(0,12) + y(0,13) + y(0,14) + y(0,15) + y(0,16) + y(0,17) + y(0,18) + y(0,19)
 + y(0,20) + y(0,21) + y(0,22) + y(0,23) + y(0,24) + y(0,25) + y(0,26) + y(0,27) + y(0,28) + y(0,29)
 + y(0,30) + y(0,31) + y(0,32) + y(0,33) + y(0,34) + y(0,35) + y(0,36) + y(0,37) + y(0,38) + y(0,39)
 + y(0,40) + y(0,41) + y(0,42) + y(0,43) + y(0,44) + y(0,45) + y(0,46) + y(0,47) + y(0,48) + y(0,49)
 + y(0,50) + y(0,51) + y(0,52) + y(0,53) + y(0,54) + y(0,55) + y(0,56) + y(0,57) + y(0,58) + y(0,59)
 + y(0,60) + y(0,61) + y(0,62) + y(0,63) + y(0,64) + y(1,0) + y(1,1) + y(1,2) + y(1,3) + y(1,4)
 + y(1,5) + y(1,6) + y(1,7) + y(1,8) + y(1,9) + y(1,10) + y(1,11) + y(1,12) + y(1,13) + y(1,14)
 + y(1,15) + y(1,16) + y(1,17) + y(1,18) + y(1,19) + y(1,20) + y(1,21) + y(1,22) + y(1,23) + y(1,24)
 + y(1,25) + y(1,26) + y(1,27) + y(1,28) + y(1,29) + y(1,30) + y(1,31) + y(1,32) + y(1,33) + y(1,34)
 + y(1,35) + y(1,36) + y(1,37) + y(1,38) + y(1,39) + y(1,40) + y(1,41) + y(1,42) + y(1,43) + y(1,44)
 + y(1,45) + y(1,46) + y(1,47) + y(1,48) + y(1,49) + y(1,50) + y(1,51) + y(1,52) + y(1,53) + y(1,54)
 + y(1,55) + y(1,56) + y(1,57) + y(1,58) + y(1,59) + y(1,60) + y(1,61) + y(1,62) + y(1,63) + y(1,64)
 + y(2,0) + y(2,1) + y(2,2) + y(2,3) + y(2,4) + y(2,5) + y(2,6) + y(2,7) + y(2,8) + y(2,9)
 + y(2,10) + y(2,11) + y(2,12) + y(2,13) + y(2,14) + y(2,15) + y(2,16) + y(2,17) + y(2,18) + y(2,19)
 + y(2,20) + y(2,21) + y(2,22) + y(2,23) + y(2,24) + y(2,25) + y(2,26) + y(2,27) + y(2,28) + y(2,29)
 + y(2,30) + y(2,31) + y(2,32) + y(2,33) + y(2,34) + y(2,35) + y(2,36) + y(2,37) + y(2,38) + y(2,39)
 + y(2,40) + y(2,41) + y(2,42) + y(2,43) + y(2,44) + y(2,45) + y(2,46) + y(2,47) + y(2,48) + y(2,49)
 + y(2,50) + y(2,51) + y(2,52) + y(2,53) + y(2,54) + y(2,55) + y(2,56) + y(2,57) + y(2,58) + y(2,59)
 + y(2,60) + y(2,61) + y(2,62) + y(2,63) + y(2,64) + y(3,0) + y(3,1) + y(3,2) + y(3,3) + y(3,4)
 + y(3,5) + y(3,6) + y(3,7) + y(3,8) + y(3,9) + y(3,10) + y(3,11) + y(3,12) + y(3,13) + y(3,14)
 + y(3,15) + y(3,16) + y(3,17) + y(3,18) + y(3,19) + y(3,20) + y(3,21) + y(3,22) + y(3,23) + y(3,24)
 + y(3,25) + y(3,26) + y(3,27) + y(3,28) + y(3,29) + y(3,30) + y(3,31) + y(3,32) + y(3,33) + y(3,34)
 + y(3,35) + y(3,36) + y(3,37) + y(3,38) + y(3,39) + y(3,40) + y(3,41) + y(3,42) + y(3,43) + y(3,44)
 + y(3,45) + y(3,46) + y(3,47) + y(3,48) + y(3,49) + y(3,50) + y(3,51) + y(3,52) + y(3,53) + y(3,54)
 + y(3,55) + y(3,56) + y(3,57) + y(3,58) + y(3,59) + y(3,60) + y(3,61) + y(3,62) + y(3,63) + y(3,64)
 + y(4,0) + y(4,1) + y(4,2) + y(4,3) + y(4,4) + y(4,5) + y(4,6) + y(4,7) + y(4,8) + y(4,9)
 + y(4,10) + y(4,11) + y(4,12) + y(4,13) + y(4,14) + y(4,15) + y(4,16) + y(4,17) + y(4,18) + y(4,19)
 + y(4,20) + y(4,21) + y(4,22) + y(4,23) + y(4,24) + y(4,25) + y(4,26) + y(4,27) + y(4,28) + y(4,29)
 + y(4,30) + y(4,31) + y(4,32) + y(4,33) + y(4,34) + y(4,35) + y(4,36) + y(4,37) + y(4,38) + y(4,39)
 + y(4,40) + y(4,41) + y(4,42) + y(4,43) + y(4,44) + y(4,45) + y(4,46) + y(4,47) + y(4,48) + y(4,49)
 + y(4,50) + y(4,51) + y(4,52) + y(4,53) + y(4,54) + y(4,55) + y(4,56) + y(4,57) + y(4,58) + y(4,59)
 + y(4,60) + y(4,61) + y(4,62) + y(4,63) + y(4,64) + y(5,0) + y(5,1) + y(5,2) + y(5,3) + y(5,4)
 + y(5,5) + y(5,6) + y(5,7) + y(5,8) + y(5,9) + y(5,10) + y(5,11) + y(5,12) + y(5,13) + y(5,14)
 + y(5,15) + y(5,16) + y(5,17) + y(5,18) + y(5,19) + y(5,20) + y(5,21) + y(5,22) + y(5,23) + y(5,24)
 + y(5,25) + y(5,26) + y(5,27) + y(5,28) + y(5,29) + y(5,30) + y(5,31) + y(5,32) + y(5,33) + y(5,34)
 + y(5,35) + y(5,36) + y(5,37) + y(5,38) + y(5,39) + y(5,40) + y(5,41) + y(5,42) + y(5,43) + y(5,44)
 + y(5,45) + y(5,46) + y(5,47) + y(5,48) + y(5,49) + y(5,50) + y(5,51) + y(5,52) + y(5,53) + y(5,54)
 + y(5,55) + y(5,56) + y(5,57) + y(5,58) + y(5,59) + y(5,60) + y(5,61) + y(5,62) + y(5,63) + y(5,64)
 = 12
restricao3.5_0:  y(0,0) + y(0,1) + y(0,2) + y(0,3) + y(0,4) + y(0,5) + y(0,6) + y(0,7) + y(0,8) + y(0,9)
 + y(0,10) + y(0,11) = 2
restricao3.5_1:  y(1,12) + y(1,13) + y(1,14) + y(1,15) + y(1,16) + y(1,17) + y(1,18) + y(1,19) = 1
restricao3.5_2:  y(2,20) + y(2,21) + y(2,22) + y(2,23) + y(2,24) + y(2,25) + y(2,26) + y(2,27) + y(2,28) + y(2,29)
 + y(2,30) + y(2,31) = 2
restricao3.5_3:  y(3,32) + y(3,33) + y(3,34) + y(3,35) + y(3,36) + y(3,37) + y(3,38) + y(3,39) + y(3,40) + y(3,41)
 + y(3,42) + y(3,43) + y(3,44) = 3
restricao3.5_4:  y(4,45) + y(4,46) + y(4,47) + y(4,48) + y(4,49) + y(4,50) + y(4,51) + y(4,52) = 1
restricao3.5_5:  y(5,53) + y(5,54) + y(5,55) + y(5,56) + y(5,57) + y(5,58) + y(5,59) + y(5,60) + y(5,61) + y(5,62)
 + y(5,63) + y(5,64) = 3
restricao3.3_5:  2.11000 y(0,0) + 18.83000 y(0,1) + 15.39000 y(0,2) + 15.04000 y(0,3) + 16.91000 y(0,4) + 12.33000 y(0,5) + 18.43000 y(0,6) + 14.78000 y(0,7) + 12.04000 y(0,8) + 10.73000 y(0,9)
 + 8.74000 y(0,10) + 10.75000 y(0,11) + 5 y(0,12) + 5.41000 y(0,13) + 21.26000 y(0,14) + 7.54000 y(0,15) + 4.29000 y(0,16) + 6.50000 y(0,17) + 11.36000 y(0,18) + 16.19000 y(0,19)
 + 7.08000 y(0,20) + 4.71000 y(0,21) + 11.44000 y(0,22) + 11.32000 y(0,23) + 7.68000 y(0,24) + 6.02000 y(0,25) + 11.65000 y(0,26) + 13.63000 y(0,27) + 7.49000 y(0,28) + 4.85000 y(0,29)
 + 7.65000 y(0,30) + 8.68000 y(0,31) + 14.29000 y(0,32) + 9.62000 y(0,33) + 7.56000 y(0,34) + 13.93000 y(0,35) + 13.83000 y(0,36) + 4.43000 y(0,37) + 9.03000 y(0,38) + 6.11000 y(0,39)
 + 7.10000 y(0,40) + 13.75000 y(0,41) + 5.62000 y(0,42) + 7.94000 y(0,43) + 10.61000 y(0,44) + 7.81000 y(0,45) + 10.48000 y(0,46) + 10.27000 y(0,47) + 9.98000 y(0,48) + 9.18000 y(0,49)
 + 7.82000 y(0,50) + 8.35000 y(0,51) + 8.66000 y(0,52) + 8.30000 y(0,53) + 9.14000 y(0,54) + 5.25000 y(0,55) + 6.86000 y(0,56) + 12.23000 y(0,57) + 14.95000 y(0,58) + 10.27000 y(0,59)
 + 11.61000 y(0,60) + 8.33000 y(0,61) + 10.07000 y(0,62) + 8.50000 y(0,63) + 8.83000 y(0,64) + 2.11000 y(1,0) + 18.83000 y(1,1) + 15.39000 y(1,2) + 15.04000 y(1,3) + 16.91000 y(1,4)
 + 12.33000 y(1,5) + 18.43000 y(1,6) + 14.78000 y(1,7) + 12.04000 y(1,8) + 10.73000 y(1,9) + 8.74000 y(1,10) + 10.75000 y(1,11) + 5 y(1,12) + 5.41000 y(1,13) + 21.26000 y(1,14)
 + 7.54000 y(1,15) + 4.29000 y(1,16) + 6.50000 y(1,17) + 11.36000 y(1,18) + 16.19000 y(1,19) + 7.08000 y(1,20) + 4.71000 y(1,21) + 11.44000 y(1,22) + 11.32000 y(1,23) + 7.68000 y(1,24)
 + 6.02000 y(1,25) + 11.65000 y(1,26) + 13.63000 y(1,27) + 7.49000 y(1,28) + 4.85000 y(1,29) + 7.65000 y(1,30) + 8.68000 y(1,31) + 14.29000 y(1,32) + 9.62000 y(1,33) + 7.56000 y(1,34)
 + 13.93000 y(1,35) + 13.83000 y(1,36) + 4.43000 y(1,37) + 9.03000 y(1,38) + 6.11000 y(1,39) + 7.10000 y(1,40) + 13.75000 y(1,41) + 5.62000 y(1,42) + 7.94000 y(1,43) + 10.61000 y(1,44)
 + 7.81000 y(1,45) + 10.48000 y(1,46) + 10.27000 y(1,47) + 9.98000 y(1,48) + 9.18000 y(1,49) + 7.82000 y(1,50) + 8.35000 y(1,51) + 8.66000 y(1,52) + 8.30000 y(1,53) + 9.14000 y(1,54)
 + 5.25000 y(1,55) + 6.86000 y(1,56) + 12.23000 y(1,57) + 14.95000 y(1,58) + 10.27000 y(1,59) + 11.61000 y(1,60) + 8.33000 y(1,61) + 10.07000 y(1,62) + 8.50000 y(1,63) + 8.83000 y(1,64)
 + 2.11000 y(2,0) + 18.83000 y(2,1) + 15.39000 y(2,2) + 15.04000 y(2,3) + 16.91000 y(2,4) + 12.33000 y(2,5) + 18.43000 y(2,6) + 14.78000 y(2,7) + 12.04000 y(2,8) + 10.73000 y(2,9)
 + 8.74000 y(2,10) + 10.75000 y(2,11) + 5 y(2,12) + 5.41000 y(2,13) + 21.26000 y(2,14) + 7.54000 y(2,15) + 4.29000 y(2,16) + 6.50000 y(2,17) + 11.36000 y(2,18) + 16.19000 y(2,19)
 + 7.08000 y(2,20) + 4.71000 y(2,21) + 11.44000 y(2,22) + 11.32000 y(2,23) + 7.68000 y(2,24) + 6.02000 y(2,25) + 11.65000 y(2,26) + 13.63000 y(2,27) + 7.49000 y(2,28) + 4.85000 y(2,29)
 + 7.65000 y(2,30) + 8.68000 y(2,31) + 14.29000 y(2,32) + 9.62000 y(2,33) + 7.56000 y(2,34) + 13.93000 y(2,35) + 13.83000 y(2,36) + 4.43000 y(2,37) + 9.03000 y(2,38) + 6.11000 y(2,39)
 + 7.10000 y(2,40) + 13.75000 y(2,41) + 5.62000 y(2,42) + 7.94000 y(2,43) + 10.61000 y(2,44) + 7.81000 y(2,45) + 10.48000 y(2,46) + 10.27000 y(2,47) + 9.98000 y(2,48) + 9.18000 y(2,49)
 + 7.82000 y(2,50) + 8.35000 y(2,51) + 8.66000 y(2,52) + 8.30000 y(2,53) + 9.14000 y(2,54) + 5.25000 y(2,55) + 6.86000 y(2,56) + 12.23000 y(2,57) + 14.95000 y(2,58) + 10.27000 y(2,59)
 + 11.61000 y(2,60) + 8.33000 y(2,61) + 10.07000 y(2,62) + 8.50000 y(2,63) + 8.83000 y(2,64) + 2.11000 y(3,0) + 18.83000 y(3,1) + 15.39000 y(3,2) + 15.04000 y(3,3) + 16.91000 y(3,4)
 + 12.33000 y(3,5) + 18.43000 y(3,6) + 14.78000 y(3,7) + 12.04000 y(3,8) + 10.73000 y(3,9) + 8.74000 y(3,10) + 10.75000 y(3,11) + 5 y(3,12) + 5.41000 y(3,13) + 21.26000 y(3,14)
 + 7.54000 y(3,15) + 4.29000 y(3,16) + 6.50000 y(3,17) + 11.36000 y(3,18) + 16.19000 y(3,19) + 7.08000 y(3,20) + 4.71000 y(3,21) + 11.44000 y(3,22) + 11.32000 y(3,23) + 7.68000 y(3,24)
 + 6.02000 y(3,25) + 11.65000 y(3,26) + 13.63000 y(3,27) + 7.49000 y(3,28) + 4.85000 y(3,29) + 7.65000 y(3,30) + 8.68000 y(3,31) + 14.29000 y(3,32) + 9.62000 y(3,33) + 7.56000 y(3,34)
 + 13.93000 y(3,35) + 13.83000 y(3,36) + 4.43000 y(3,37) + 9.03000 y(3,38) + 6.11000 y(3,39) + 7.10000 y(3,40) + 13.75000 y(3,41) + 5.62000 y(3,42) + 7.94000 y(3,43) + 10.61000 y(3,44)
 + 7.81000 y(3,45) + 10.48000 y(3,46) + 10.27000 y(3,47) + 9.98000 y(3,48) + 9.18000 y(3,49) + 7.82000 y(3,50) + 8.35000 y(3,51) + 8.66000 y(3,52) + 8.30000 y(3,53) + 9.14000 y(3,54)
 + 5.25000 y(3,55) + 6.86000 y(3,56) + 12.23000 y(3,57) + 14.95000 y(3,58) + 10.27000 y(3,59) + 11.61000 y(3,60) + 8.33000 y(3,61) + 10.07000 y(3,62) + 8.50000 y(3,63) + 8.83000 y(3,64)
 + 2.11000 y(4,0) + 18.83000 y(4,1) + 15.39000 y(4,2) + 15.04000 y(4,3) + 16.91000 y(4,4) + 12.33000 y(4,5) + 18.43000 y(4,6) + 14.78000 y(4,7) + 12.04000 y(4,8) + 10.73000 y(4,9)
 + 8.74000 y(4,10) + 10.75000 y(4,11) + 5 y(4,12) + 5.41000 y(4,13) + 21.26000 y(4,14) + 7.54000 y(4,15) + 4.29000 y(4,16) + 6.50000 y(4,17) + 11.36000 y(4,18) + 16.19000 y(4,19)
 + 7.08000 y(4,20) + 4.71000 y(4,21) + 11.44000 y(4,22) + 11.32000 y(4,23) + 7.68000 y(4,24) + 6.02000 y(4,25) + 11.65000 y(4,26) + 13.63000 y(4,27) + 7.49000 y(4,28) + 4.85000 y(4,29)
 + 7.65000 y(4,30) + 8.68000 y(4,31) + 14.29000 y(4,32) + 9.62000 y(4,33) + 7.56000 y(4,34) + 13.93000 y(4,35) + 13.83000 y(4,36) + 4.43000 y(4,37) + 9.03000 y(4,38) + 6.11000 y(4,39)
 + 7.10000 y(4,40) + 13.75000 y(4,41) + 5.62000 y(4,42) + 7.94000 y(4,43) + 10.61000 y(4,44) + 7.81000 y(4,45) + 10.48000 y(4,46) + 10.27000 y(4,47) + 9.98000 y(4,48) + 9.18000 y(4,49)
 + 7.82000 y(4,50) + 8.35000 y(4,51) + 8.66000 y(4,52) + 8.30000 y(4,53) + 9.14000 y(4,54) + 5.25000 y(4,55) + 6.86000 y(4,56) + 12.23000 y(4,57) + 14.95000 y(4,58) + 10.27000 y(4,59)
 + 11.61000 y(4,60) + 8.33000 y(4,61) + 10.07000 y(4,62) + 8.50000 y(4,63) + 8.83000 y(4,64) + 2.11000 y(5,0) + 18.83000 y(5,1) + 15.39000 y(5,2) + 15.04000 y(5,3) + 16.91000 y(5,4)
 + 12.33000 y(5,5) + 18.43000 y(5,6) + 14.78000 y(5,7) + 12.04000 y(5,8) + 10.73000 y(5,9) + 8.74000 y(5,10) + 10.75000 y(5,11) + 5 y(5,12) + 5.41000 y(5,13) + 21.26000 y(5,14)
 + 7.54000 y(5,15) + 4.29000 y(5,16) + 6.50000 y(5,17) + 11.36000 y(5,18) + 16.19000 y(5,19) + 7.08000 y(5,20) + 4.71000 y(5,21) + 11.44000 y(5,22) + 11.32000 y(5,23) + 7.68000 y(5,24)
 + 6.02000 y(5,25) + 11.65000 y(5,26) + 13.63000 y(5,27) + 7.49000 y(5,28) + 4.85000 y(5,29) + 7.65000 y(5,30) + 8.68000 y(5,31) + 14.29000 y(5,32) + 9.62000 y(5,33) + 7.56000 y(5,34)
 + 13.93000 y(5,35) + 13.83000 y(5,36) + 4.43000 y(5,37) + 9.03000 y(5,38) + 6.11000 y(5,39) + 7.10000 y(5,40) + 13.75000 y(5,41) + 5.62000 y(5,42) + 7.94000 y(5,43) + 10.61000 y(5,44)
 + 7.81000 y(5,45) + 10.48000 y(5,46) + 10.27000 y(5,47) + 9.98000 y(5,48) + 9.18000 y(5,49) + 7.82000 y(5,50) + 8.35000 y(5,51) + 8.66000 y(5,52) + 8.30000 y(5,53) + 9.14000 y(5,54)
 + 5.25000 y(5,55) + 6.86000 y(5,56) + 12.23000 y(5,57) + 14.95000 y(5,58) + 10.27000 y(5,59) + 11.61000 y(5,60) + 8.33000 y(5,61) + 10.07000 y(5,62) + 8.50000 y(5,63) + 8.83000 y(5,64)
 <= 205.33000
Bounds
 0 <= y(0,0) <= 1
 0 <= y(0,1) <= 1
 0 <= y(0,2) <= 1
 0 <= y(0,3) <= 1
 0 <= y(0,4) <= 1
 0 <= y(0,5) <= 1
 0 <= y(0,6) <= 1
 0 <= y(0,7) <= 1
 0 <= y(0,8) <= 1
 0 <= y(0,9) <= 1
 0 <= y(0,10) <= 1
 0 <= y(0,11) <= 1
 0 <= y(0,12) <= 1
 0 <= y(0,13) <= 1
 0 <= y(0,14) <= 1
 0 <= y(0,15) <= 1
 0 <= y(0,16) <= 1
 0 <= y(0,17) <= 1
 0 <= y(0,18) <= 1
 0 <= y(0,19) <= 1
 0 <= y(0,20) <= 1
 0 <= y(0,21) <= 1
 0 <= y(0,22) <= 1
 0 <= y(0,23) <= 1
 0 <= y(0,24) <= 1
 0 <= y(0,25) <= 1
 0 <= y(0,26) <= 1
 0 <= y(0,27) <= 1
 0 <= y(0,28) <= 1
 0 <= y(0,29) <= 1
 0 <= y(0,30) <= 1
 0 <= y(0,31) <= 1
 0 <= y(0,32) <= 1
 0 <= y(0,33) <= 1
 0 <= y(0,34) <= 1
 0 <= y(0,35) <= 1
 0 <= y(0,36) <= 1
 0 <= y(0,37) <= 1
 0 <= y(0,38) <= 1
 0 <= y(0,39) <= 1
 0 <= y(0,40) <= 1
 0 <= y(0,41) <= 1
 0 <= y(0,42) <= 1
 0 <= y(0,43) <= 1
 0 <= y(0,44) <= 1
 0 <= y(0,45) <= 1
 0 <= y(0,46) <= 1
 0 <= y(0,47) <= 1
 0 <= y(0,48) <= 1
 0 <= y(0,49) <= 1
 0 <= y(0,50) <= 1
 0 <= y(0,51) <= 1
 0 <= y(0,52) <= 1
 0 <= y(0,53) <= 1
 0 <= y(0,54) <= 1
 0 <= y(0,55) <= 1
 0 <= y(0,56) <= 1
 0 <= y(0,57) <= 1
 0 <= y(0,58) <= 1
 0 <= y(0,59) <= 1
 0 <= y(0,60) <= 1
 0 <= y(0,61) <= 1
 0 <= y(0,62) <= 1
 0 <= y(0,63) <= 1
 0 <= y(0,64) <= 1
 0 <= y(1,0) <= 1
 0 <= y(1,1) <= 1
 0 <= y(1,2) <= 1
 0 <= y(1,3) <= 1
 0 <= y(1,4) <= 1
 0 <= y(1,5) <= 1
 0 <= y(1,6) <= 1
 0 <= y(1,7) <= 1
 0 <= y(1,8) <= 1
 0 <= y(1,9) <= 1
 0 <= y(1,10) <= 1
 0 <= y(1,11) <= 1
 0 <= y(1,12) <= 1
 0 <= y(1,13) <= 1
 0 <= y(1,14) <= 1
 0 <= y(1,15) <= 1
 0 <= y(1,16) <= 1
 0 <= y(1,17) <= 1
 0 <= y(1,18) <= 1
 0 <= y(1,19) <= 1
 0 <= y(1,20) <= 1
 0 <= y(1,21) <= 1
 0 <= y(1,22) <= 1
 0 <= y(1,23) <= 1
 0 <= y(1,24) <= 1
 0 <= y(1,25) <= 1
 0 <= y(1,26) <= 1
 0 <= y(1,27) <= 1
 0 <= y(1,28) <= 1
 0 <= y(1,29) <= 1
 0 <= y(1,30) <= 1
 0 <= y(1,31) <= 1
 0 <= y(1,32) <= 1
 0 <= y(1,33) <= 1
 0 <= y(1,34) <= 1
 0 <= y(1,35) <= 1
 0 <= y(1,36) <= 1
 0 <= y(1,37) <= 1
 0 <= y(1,38) <= 1
 0 <= y(1,39) <= 1
 0 <= y(1,40) <= 1
 0 <= y(1,41) <= 1
 0 <= y(1,42) <= 1
 0 <= y(1,43) <= 1
 0 <= y(1,44) <= 1
 0 <= y(1,45) <= 1
 0 <= y(1,46) <= 1
 0 <= y(1,47) <= 1
 0 <= y(1,48) <= 1
 0 <= y(1,49) <= 1
 0 <= y(1,50) <= 1
 0 <= y(1,51) <= 1
 0 <= y(1,52) <= 1
 0 <= y(1,53) <= 1
 0 <= y(1,54) <= 1
 0 <= y(1,55) <= 1
 0 <= y(1,56) <= 1
 0 <= y(1,57) <= 1
 0 <= y(1,58) <= 1
 0 <= y(1,59) <= 1
 0 <= y(1,60) <= 1
 0 <= y(1,61) <= 1
 0 <= y(1,62) <= 1
 0 <= y(1,63) <= 1
 0 <= y(1,64) <= 1
 0 <= y(2,0) <= 1
 0 <= y(2,1) <= 1
 0 <= y(2,2) <= 1
 0 <= y(2,3) <= 1
 0 <= y(2,4) <= 1
 0 <= y(2,5) <= 1
 0 <= y(2,6) <= 1
 0 <= y(2,7) <= 1
 0 <= y(2,8) <= 1
 0 <= y(2,9) <= 1
 0 <= y(2,10) <= 1
 0 <= y(2,11) <= 1
 0 <= y(2,12) <= 1
 0 <= y(2,13) <= 1
 0 <= y(2,14) <= 1
 0 <= y(2,15) <= 1
 0 <= y(2,16) <= 1
 0 <= y(2,17) <= 1
 0 <= y(2,18) <= 1
 0 <= y(2,19) <= 1
 0 <= y(2,20) <= 1
 0 <= y(2,21) <= 1
 0 <= y(2,22) <= 1
 0 <= y(2,23) <= 1
 0 <= y(2,24) <= 1
 0 <= y(2,25) <= 1
 0 <= y(2,26) <= 1
 0 <= y(2,27) <= 1
 0 <= y(2,28) <= 1
 0 <= y(2,29) <= 1
 0 <= y(2,30) <= 1
 0 <= y(2,31) <= 1
 0 <= y(2,32) <= 1
 0 <= y(2,33) <= 1
 0 <= y(2,34) <= 1
 0 <= y(2,35) <= 1
 0 <= y(2,36) <= 1
 0 <= y(2,37) <= 1
 0 <= y(2,38) <= 1
 0 <= y(2,39) <= 1
 0 <= y(2,40) <= 1
 0 <= y(2,41) <= 1
 0 <= y(2,42) <= 1
 0 <= y(2,43) <= 1
 0 <= y(2,44) <= 1
 0 <= y(2,45) <= 1
 0 <= y(2,46) <= 1
 0 <= y(2,47) <= 1
 0 <= y(2,48) <= 1
 0 <= y(2,49) <= 1
 0 <= y(2,50) <= 1
 0 <= y(2,51) <= 1
 0 <= y(2,52) <= 1
 0 <= y(2,53) <= 1
 0 <= y(2,54) <= 1
 0 <= y(2,55) <= 1
 0 <= y(2,56) <= 1
 0 <= y(2,57) <= 1
 0 <= y(2,58) <= 1
 0 <= y(2,59) <= 1
 0 <= y(2,60) <= 1
 0 <= y(2,61) <= 1
 0 <= y(2,62) <= 1
 0 <= y(2,63) <= 1
 0 <= y(2,64) <= 1
 0 <= y(3,0) <= 1
 0 <= y(3,1) <= 1
 0 <= y(3,2) <= 1
 0 <= y(3,3) <= 1
 0 <= y(3,4) <= 1
 0 <= y(3,5) <= 1
 0 <= y(3,6) <= 1
 0 <= y(3,7) <= 1
 0 <= y(3,8) <= 1
 0 <= y(3,9) <= 1
 0 <= y(3,10) <= 1
 0 <= y(3,11) <= 1
 0 <= y(3,12) <= 1
 0 <= y(3,13) <= 1
 0 <= y(3,14) <= 1
 0 <= y(3,15) <= 1
 0 <= y(3,16) <= 1
 0 <= y(3,17) <= 1
 0 <= y(3,18) <= 1
 0 <= y(3,19) <= 1
 0 <= y(3,20) <= 1
 0 <= y(3,21) <= 1
 0 <= y(3,22) <= 1
 0 <= y(3,23) <= 1
 0 <= y(3,24) <= 1
 0 <= y(3,25) <= 1
 0 <= y(3,26) <= 1
 0 <= y(3,27) <= 1
 0 <= y(3,28) <= 1
 0 <= y(3,29) <= 1
 0 <= y(3,30) <= 1
 0 <= y(3,31) <= 1
 0 <= y(3,32) <= 1
 0 <= y(3,33) <= 1
 0 <= y(3,34) <= 1
 0 <= y(3,35) <= 1
 0 <= y(3,36) <= 1
 0 <= y(3,37) <= 1
 0 <= y(3,38) <= 1
 0 <= y(3,39) <= 1
 0 <= y(3,40) <= 1
 0 <= y(3,41) <= 1
 0 <= y(3,42) <= 1
 0 <= y(3,43) <= 1
 0 <= y(3,44) <= 1
 0 <= y(3,45) <= 1
 0 <= y(3,46) <= 1
 0 <= y(3,47) <= 1
 0 <= y(3,48) <= 1
 0 <= y(3,49) <= 1
 0 <= y(3,50) <= 1
 0 <= y(3,51) <= 1
 0 <= y(3,52) <= 1
 0 <= y(3,53) <= 1
 0 <= y(3,54) <= 1
 0 <= y(3,55) <= 1
 0 <= y(3,56) <= 1
 0 <= y(3,57) <= 1
 0 <= y(3,58) <= 1
 0 <= y(3,59) <= 1
 0 <= y(3,60) <= 1
 0 <= y(3,61) <= 1
 0 <= y(3,62) <= 1
 0 <= y(3,63) <= 1
 0 <= y(3,64) <= 1
 0 <= y(4,0) <= 1
 0 <= y(4,1) <= 1
 0 <= y(4,2) <= 1
 0 <= y(4,3) <= 1
 0 <= y(4,4) <= 1
 0 <= y(4,5) <= 1
 0 <= y(4,6) <= 1
 0 <= y(4,7) <= 1
 0 <= y(4,8) <= 1
 0 <= y(4,9) <= 1
 0 <= y(4,10) <= 1
 0 <= y(4,11) <= 1
 0 <= y(4,12) <= 1
 0 <= y(4,13) <= 1
 0 <= y(4,14) <= 1
 0 <= y(4,15) <= 1
 0 <= y(4,16) <= 1
 0 <= y(4,17) <= 1
 0 <= y(4,18) <= 1
 0 <= y(4,19) <= 1
 0 <= y(4,20) <= 1
 0 <= y(4,21) <= 1
 0 <= y(4,22) <= 1
 0 <= y(4,23) <= 1
 0 <= y(4,24) <= 1
 0 <= y(4,25) <= 1
 0 <= y(4,26) <= 1
 0 <= y(4,27) <= 1
 0 <= y(4,28) <= 1
 0 <= y(4,29) <= 1
 0 <= y(4,30) <= 1
 0 <= y(4,31) <= 1
 0 <= y(4,32) <= 1
 0 <= y(4,33) <= 1
 0 <= y(4,34) <= 1
 0 <= y(4,35) <= 1
 0 <= y(4,36) <= 1
 0 <= y(4,37) <= 1
 0 <= y(4,38) <= 1
 0 <= y(4,39) <= 1
 0 <= y(4,40) <= 1
 0 <= y(4,41) <= 1
 0 <= y(4,42) <= 1
 0 <= y(4,43) <= 1
 0 <= y(4,44) <= 1
 0 <= y(4,45) <= 1
 0 <= y(4,46) <= 1
 0 <= y(4,47) <= 1
 0 <= y(4,48) <= 1
 0 <= y(4,49) <= 1
 0 <= y(4,50) <= 1
 0 <= y(4,51) <= 1
 0 <= y(4,52) <= 1
 0 <= y(4,53) <= 1
 0 <= y(4,54) <= 1
 0 <= y(4,55) <= 1
 0 <= y(4,56) <= 1
 0 <= y(4,57) <= 1
 0 <= y(4,58) <= 1
 0 <= y(4,59) <= 1
 0 <= y(4,60) <= 1
 0 <= y(4,61) <= 1
 0 <= y(4,62) <= 1
 0 <= y(4,63) <= 1
 0 <= y(4,64) <= 1
 0 <= y(5,0) <= 1
 0 <= y(5,1) <= 1
 0 <= y(5,2) <= 1
 0 <= y(5,3) <= 1
 0 <= y(5,4) <= 1
 0 <= y(5,5) <= 1
 0 <= y(5,6) <= 1
 0 <= y(5,7) <= 1
 0 <= y(5,8) <= 1
 0 <= y(5,9) <= 1
 0 <= y(5,10) <= 1
 0 <= y(5,11) <= 1
 0 <= y(5,12) <= 1
 0 <= y(5,13) <= 1
 0 <= y(5,14) <= 1
 0 <= y(5,15) <= 1
 0 <= y(5,16) <= 1
 0 <= y(5,17) <= 1
 0 <= y(5,18) <= 1
 0 <= y(5,19) <= 1
 0 <= y(5,20) <= 1
 0 <= y(5,21) <= 1
 0 <= y(5,22) <= 1
 0 <= y(5,23) <= 1
 0 <= y(5,24) <= 1
 0 <= y(5,25) <= 1
 0 <= y(5,26) <= 1
 0 <= y(5,27) <= 1
 0 <= y(5,28) <= 1
 0 <= y(5,29) <= 1
 0 <= y(5,30) <= 1
 0 <= y(5,31) <= 1
 0 <= y(5,32) <= 1
 0 <= y(5,33) <= 1
 0 <= y(5,34) <= 1
 0 <= y(5,35) <= 1
 0 <= y(5,36) <= 1
 0 <= y(5,37) <= 1
 0 <= y(5,38) <= 1
 0 <= y(5,39) <= 1
 0 <= y(5,40) <= 1
 0 <= y(5,41) <= 1
 0 <= y(5,42) <= 1
 0 <= y(5,43) <= 1
 0 <= y(5,44) <= 1
 0 <= y(5,45) <= 1
 0 <= y(5,46) <= 1
 0 <= y(5,47) <= 1
 0 <= y(5,48) <= 1
 0 <= y(5,49) <= 1
 0 <= y(5,50) <= 1
 0 <= y(5,51) <= 1
 0 <= y(5,52) <= 1
 0 <= y(5,53) <= 1
 0 <= y(5,54) <= 1
 0 <= y(5,55) <= 1
 0 <= y(5,56) <= 1
 0 <= y(5,57) <= 1
 0 <= y(5,58) <= 1
 0 <= y(5,59) <= 1
 0 <= y(5,60) <= 1
 0 <= y(5,61) <= 1
 0 <= y(5,62) <= 1
 0 <= y(5,63) <= 1
 0 <= y(5,64) <= 1
Integers
y(0,0) y(0,1) y(0,2) y(0,3) y(0,4) y(0,5) y(0,6) y(0,7) y(0,8) y(0,9) 
y(0,10) y(0,11) y(0,12) y(0,13) y(0,14) y(0,15) y(0,16) y(0,17) y(0,18) y(0,19) 
y(0,20) y(0,21) y(0,22) y(0,23) y(0,24) y(0,25) y(0,26) y(0,27) y(0,28) y(0,29) 
y(0,30) y(0,31) y(0,32) y(0,33) y(0,34) y(0,35) y(0,36) y(0,37) y(0,38) y(0,39) 
y(0,40) y(0,41) y(0,42) y(0,43) y(0,44) y(0,45) y(0,46) y(0,47) y(0,48) y(0,49) 
y(0,50) y(0,51) y(0,52) y(0,53) y(0,54) y(0,55) y(0,56) y(0,57) y(0,58) y(0,59) 
y(0,60) y(0,61) y(0,62) y(0,63) y(0,64) y(1,0) y(1,1) y(1,2) y(1,3) y(1,4) 
y(1,5) y(1,6) y(1,7) y(1,8) y(1,9) y(1,10) y(1,11) y(1,12) y(1,13) y(1,14) 
y(1,15) y(1,16) y(1,17) y(1,18) y(1,19) y(1,20) y(1,21) y(1,22) y(1,23) y(1,24) 
y(1,25) y(1,26) y(1,27) y(1,28) y(1,29) y(1,30) y(1,31) y(1,32) y(1,33) y(1,34) 
y(1,35) y(1,36) y(1,37) y(1,38) y(1,39) y(1,40) y(1,41) y(1,42) y(1,43) y(1,44) 
y(1,45) y(1,46) y(1,47) y(1,48) y(1,49) y(1,50) y(1,51) y(1,52) y(1,53) y(1,54) 
y(1,55) y(1,56) y(1,57) y(1,58) y(1,59) y(1,60) y(1,61) y(1,62) y(1,63) y(1,64) 
y(2,0) y(2,1) y(2,2) y(2,3) y(2,4) y(2,5) y(2,6) y(2,7) y(2,8) y(2,9) 
y(2,10) y(2,11) y(2,12) y(2,13) y(2,14) y(2,15) y(2,16) y(2,17) y(2,18) y(2,19) 
y(2,20) y(2,21) y(2,22) y(2,23) y(2,24) y(2,25) y(2,26) y(2,27) y(2,28) y(2,29) 
y(2,30) y(2,31) y(2,32) y(2,33) y(2,34) y(2,35) y(2,36) y(2,37) y(2,38) y(2,39) 
y(2,40) y(2,41) y(2,42) y(2,43) y(2,44) y(2,45) y(2,46) y(2,47) y(2,48) y(2,49) 
y(2,50) y(2,51) y(2,52) y(2,53) y(2,54) y(2,55) y(2,56) y(2,57) y(2,58) y(2,59) 
y(2,60) y(2,61) y(2,62) y(2,63) y(2,64) y(3,0) y(3,1) y(3,2) y(3,3) y(3,4) 
y(3,5) y(3,6) y(3,7) y(3,8) y(3,9) y(3,10) y(3,11) y(3,12) y(3,13) y(3,14) 
y(3,15) y(3,16) y(3,17) y(3,18) y(3,19) y(3,20) y(3,21) y(3,22) y(3,23) y(3,24) 
y(3,25) y(3,26) y(3,27) y(3,28) y(3,29) y(3,30) y(3,31) y(3,32) y(3,33) y(3,34) 
y(3,35) y(3,36) y(3,37) y(3,38) y(3,39) y(3,40) y(3,41) y(3,42) y(3,43) y(3,44) 
y(3,45) y(3,46) y(3,47) y(3,48) y(3,49) y(3,50) y(3,51) y(3,52) y(3,53) y(3,54) 
y(3,55) y(3,56) y(3,57) y(3,58) y(3,59) y(3,60) y(3,61) y(3,62) y(3,63) y(3,64) 
y(4,0) y(4,1) y(4,2) y(4,3) y(4,4) y(4,5) y(4,6) y(4,7) y(4,8) y(4,9) 
y(4,10) y(4,11) y(4,12) y(4,13) y(4,14) y(4,15) y(4,16) y(4,17) y(4,18) y(4,19) 
y(4,20) y(4,21) y(4,22) y(4,23) y(4,24) y(4,25) y(4,26) y(4,27) y(4,28) y(4,29) 
y(4,30) y(4,31) y(4,32) y(4,33) y(4,34) y(4,35) y(4,36) y(4,37) y(4,38) y(4,39) 
y(4,40) y(4,41) y(4,42) y(4,43) y(4,44) y(4,45) y(4,46) y(4,47) y(4,48) y(4,49) 
y(4,50) y(4,51) y(4,52) y(4,53) y(4,54) y(4,55) y(4,56) y(4,57) y(4,58) y(4,59) 
y(4,60) y(4,61) y(4,62) y(4,63) y(4,64) y(5,0) y(5,1) y(5,2) y(5,3) y(5,4) 
y(5,5) y(5,6) y(5,7) y(5,8) y(5,9) y(5,10) y(5,11) y(5,12) y(5,13) y(5,14) 
y(5,15) y(5,16) y(5,17) y(5,18) y(5,19) y(5,20) y(5,21) y(5,22) y(5,23) y(5,24) 
y(5,25) y(5,26) y(5,27) y(5,28) y(5,29) y(5,30) y(5,31) y(5,32) y(5,33) y(5,34) 
y(5,35) y(5,36) y(5,37) y(5,38) y(5,39) y(5,40) y(5,41) y(5,42) y(5,43) y(5,44) 
y(5,45) y(5,46) y(5,47) y(5,48) y(5,49) y(5,50) y(5,51) y(5,52) y(5,53) y(5,54) 
y(5,55) y(5,56) y(5,57) y(5,58) y(5,59) y(5,60) y(5,61) y(5,62) y(5,63) y(5,64) 
End
